SPARKNaCl/why3-cvc5/sparknacl-scalar.adb_8_49_range_check_1.smt2
;; produced by cvc5.drv ;;
(set-logic ALL)
(set-info :smt-lib-version 2.6)
;;; generated by SMT-LIB2 driver
;;; SMT-LIB2 driver: bit-vectors, common part
;;; SMT-LIB2: integer arithmetic
;; "pow2"
(declare-fun pow2 (Int) Int)

(declare-const two_power_size_minus_one Int)

;; "two_power_size_minus_one_val"
(assert (= two_power_size_minus_one (pow2 (- 8 1))))

;; "min"
(define-fun min ((x Int) (y Int)) Int
  (ite (<= x y) x y))

;; "max"
(define-fun max ((x Int) (y Int)) Int
  (ite (<= x y) y x))

;; "Min_r"
(assert (forall ((x Int) (y Int)) (=> (<= y x) (= (min x y) y))))

;; "Max_l"
(assert (forall ((x Int) (y Int)) (=> (<= y x) (= (max x y) x))))

;; "Min_comm"
(assert (forall ((x Int) (y Int)) (= (min x y) (min y x))))

;; "Max_comm"
(assert (forall ((x Int) (y Int)) (= (max x y) (max y x))))

;; "Min_assoc"
(assert
  (forall ((x Int) (y Int) (z Int)) (= (min (min x y) z) (min x (min y z)))))

;; "Max_assoc"
(assert
  (forall ((x Int) (y Int) (z Int)) (= (max (max x y) z) (max x (max y z)))))

(declare-const two_power_size_minus_one1 Int)

;; "two_power_size_minus_one_val"
(assert (= two_power_size_minus_one1 (pow2 (- 16 1))))

(declare-sort byte 0)

;; "to_rep"
(declare-fun to_rep (byte) (_ BitVec 8))

;; "of_rep"
(declare-fun of_rep ((_ BitVec 8)) byte)

;; "inversion_axiom"
(assert
  (forall ((x byte)) (! (= (of_rep (to_rep x)) x) :pattern ((to_rep x)) )))

;; "range_axiom"
(assert true)

;; "coerce_axiom"
(assert
  (forall ((x (_ BitVec 8)))
    (! (= (to_rep (of_rep x)) x) :pattern ((to_rep (of_rep x))) )))

(declare-sort map1 0)

;; "has_bounds"
(declare-fun has_bounds (map1
  Int
  Int) Bool)

;; "get"
(declare-fun get (map1
  Int) byte)

(declare-const nine map1)

(declare-sort gf16_normal_limb 0)

;; "to_rep"
(declare-fun to_rep1 (gf16_normal_limb) (_ BitVec 16))

;; "of_rep"
(declare-fun of_rep1 ((_ BitVec 16)) gf16_normal_limb)

;; "inversion_axiom"
(assert
  (forall ((x gf16_normal_limb))
    (! (= (of_rep1 (to_rep1 x)) x) :pattern ((to_rep1 x)) )))

;; "range_axiom"
(assert true)

;; "coerce_axiom"
(assert
  (forall ((x (_ BitVec 16)))
    (! (= (to_rep1 (of_rep1 x)) x) :pattern ((to_rep1 (of_rep1 x))) )))

;; "ada___sparknacl__scalar__nine__aggregate_def"
(declare-fun ada___sparknacl__scalar__nine__aggregate_def ((_ BitVec 8)
  (_ BitVec 8)) map1)

;; "def_axiom"
(assert
  (forall ((temp___171 (_ BitVec 8)) (temp___172 (_ BitVec 8)))
    (let ((temp___173 (ada___sparknacl__scalar__nine__aggregate_def
                        temp___171
                        temp___172)))
      (and
        (and
          (= (to_rep (get temp___173 0)) temp___171)
          (=> (and (<= 0 0) (<= 0 31)) (has_bounds temp___173 0 31)))
        (forall ((temp___174 Int))
          (! (=>
               (and (<= 0 temp___174) (<= temp___174 31))
               (=>
                 (not (= temp___174 0))
                 (= (to_rep (get temp___173 temp___174)) temp___172))) :pattern (
          (get
            temp___173
            temp___174)) ))))))

;; Goal "def'vc"
;; File "sparknacl-scalar.ads", line 1, characters 0-0
(assert
  (not
  (=>
    (<= (+ 0 0) 31)
    (forall ((temp___398 map1))
      (=>
        (and
          (and
            (and
              (= (to_rep (get temp___398 0)) #x09)
              (has_bounds temp___398 0 31))
            (forall ((temp___175 Int))
              (! (=>
                   (and (<= 0 temp___175) (<= temp___175 31))
                   (=>
                     (not (= temp___175 0))
                     (= (to_rep (get temp___398 temp___175)) #x00))) :pattern (
              (get
                temp___398
                temp___175)) )))
          (= temp___398 (ada___sparknacl__scalar__nine__aggregate_def
                          #x09
                          #x00)))
        (=> (= temp___398 nine) (=> (has_bounds nine 0 31) (<= (+ 0 1) 15))))))))

(check-sat)
